1 0 1 30
2 0 1 50
3 0 1 70
4 0 1 90
5 0 1 110
6 0 1 130
7 0 1 150
8 0 1 170
9 0 1 190
10 0 1 210
11 0 1 230
12 0 1 250
13 0 1 270
14 0 1 290
15 0 1 310
16 0 1 330
17 0 1 350
18 0 1 370
19 0 1 390
20 0 1 410
21 0 1 430
22 0 1 450
23 0 1 470
24 0 1 490
25 0 1 510
26 0 1 530
27 0 1 550
28 0 1 570
29 0 1 590
30 0 1 610
31 1 1 30
32 1 1 50
33 1 1 70
34 1 1 90
35 1 1 110
36 1 1 130
37 1 1 150
38 1 1 170
39 1 1 190
40 1 1 210
41 1 1 230
42 1 1 250
43 1 1 270
44 1 1 290
45 1 1 310
46 1 1 330
47 1 1 350
48 1 1 370
49 1 1 390
50 1 1 410
51 1 1 430
52 1 1 450
53 1 1 470
54 1 1 490
55 1 1 510
56 1 1 530
57 1 1 550
58 1 1 570
59 1 1 590
60 1 1 610